branch-and-cut/resultados/I080/i080-013.sol
1381
8
13 4
29 20
3 20
2 13
29 13
13 6
1 29
29 5
